\ Generated by MPModelProtoExporter
\   Name             : SCIP
\   Format           : Free
\   Constraints      : 45
\   Variables        : 465
\     Binary         : 465
\     Integer        : 0
\     Continuous     : 0
Minimize
 Obj: +90 x[0,0] +19 x[1,0] +75 x[2,0] +96 x[3,0] +85 x[4,0] +93 x[5,0] +25 x[6,0] +66 x[7,0] +92 x[8,0] +23 x[9,0] +19 x[10,0] +57 x[11,0] +64 x[12,0] +57 x[13,0] +34 x[14,0] +14 x[15,0] +31 x[16,0] +87 x[17,0] +77 x[18,0] +84 x[19,0] +62 x[20,0] +25 x[21,0] +13 x[22,0] +85 x[23,0] +83 x[24,0] +55 x[25,0] +64 x[26,0] +71 x[27,0] +72 x[28,0] +27 x[29,0] +25 x[0,1] +70 x[1,1] +27 x[2,1] +6 x[3,1] +43 x[4,1] +94 x[5,1] +59 x[6,1] +95 x[7,1] +49 x[8,1] +82 x[9,1] +64 x[10,1] +12 x[11,1] +89 x[12,1] +95 x[13,1] +87 x[14,1] +75 x[15,1] +83 x[16,1] +89 x[17,1] +96 x[18,1] +56 x[19,1] +61 x[20,1] +25 x[21,1] +44 x[22,1] +48 x[23,1] +16 x[24,1] +57 x[25,1] +95 x[26,1] +94 x[27,1] +72 x[28,1] +22 x[29,1] +26 x[0,2] +34 x[1,2] +12 x[2,2] +43 x[3,2] +13 x[4,2] +67 x[5,2] +29 x[6,2] +89 x[7,2] +3 x[8,2] +92 x[9,2] +37 x[10,2] +97 x[11,2] +45 x[12,2] +80 x[13,2] +27 x[14,2] +27 x[15,2] +55 x[16,2] +73 x[17,2] +51 x[18,2] +17 x[19,2] +87 x[20,2] +80 x[21,2] +14 x[22,2] +50 x[23,2] +81 x[24,2] +15 x[25,2] +58 x[26,2] +88 x[27,2] +26 x[28,2] +11 x[29,2] +40 x[0,3] +80 x[1,3] +71 x[2,3] +93 x[3,3] +77 x[4,3] +13 x[5,3] +50 x[6,3] +65 x[7,3] +99 x[8,3] +28 x[9,3] +83 x[10,3] +29 x[11,3] +91 x[12,3] +83 x[13,3] +9 x[14,3] +51 x[15,3] +7 x[16,3] +25 x[17,3] +57 x[18,3] +86 x[19,3] +1 x[20,3] +97 x[21,3] +6 x[22,3] +67 x[23,3] +36 x[24,3] +77 x[25,3] +50 x[26,3] +8 x[27,3] +42 x[28,3] +17 x[29,3] +56 x[0,4] +63 x[1,4] +28 x[2,4] +46 x[3,4] +72 x[4,4] +68 x[5,4] +50 x[6,4] +76 x[7,4] +17 x[8,4] +21 x[9,4] +21 x[10,4] +33 x[11,4] +98 x[12,4] +97 x[13,4] +79 x[14,4] +86 x[15,4] +38 x[16,4] +75 x[17,4] +25 x[18,4] +9 x[19,4] +26 x[20,4] +33 x[21,4] +70 x[22,4] +58 x[23,4] +38 x[24,4] +15 x[25,4] +10 x[26,4] +67 x[27,4] +81 x[28,4] +51 x[29,4] +37 x[0,5] +46 x[1,5] +67 x[2,5] +46 x[3,5] +63 x[4,5] +8 x[5,5] +73 x[6,5] +61 x[7,5] +69 x[8,5] +60 x[9,5] +94 x[10,5] +70 x[11,5] +26 x[12,5] +79 x[13,5] +37 x[14,5] +51 x[15,5] +88 x[16,5] +56 x[17,5] +92 x[18,5] +50 x[19,5] +52 x[20,5] +83 x[21,5] +23 x[22,5] +16 x[23,5] +55 x[24,5] +22 x[25,5] +19 x[26,5] +20 x[27,5] +41 x[28,5] +25 x[29,5] +49 x[0,6] +21 x[1,6] +57 x[2,6] +71 x[3,6] +5 x[4,6] +59 x[5,6] +76 x[6,6] +64 x[7,6] +49 x[8,6] +43 x[9,6] +43 x[10,6] +62 x[11,6] +76 x[12,6] +57 x[13,6] +15 x[14,6] +1 x[15,6] +42 x[16,6] +10 x[17,6] +94 x[18,6] +25 x[19,6] +20 x[20,6] +99 x[21,6] +70 x[22,6] +4 x[23,6] +42 x[24,6] +57 x[25,6] +72 x[26,6] +85 x[27,6] +90 x[28,6] +14 x[29,6] +28 x[0,7] +33 x[1,7] +28 x[2,7] +38 x[3,7] +86 x[4,7] +39 x[5,7] +52 x[6,7] +93 x[7,7] +20 x[8,7] +47 x[9,7] +39 x[10,7] +12 x[11,7] +67 x[12,7] +15 x[13,7] +77 x[14,7] +76 x[15,7] +39 x[16,7] +95 x[17,7] +3 x[18,7] +72 x[19,7] +42 x[20,7] +47 x[21,7] +20 x[23,7] +21 x[24,7] +15 x[25,7] +13 x[26,7] +19 x[27,7] +56 x[28,7] +12 x[29,7] +4 x[0,8] +37 x[1,8] +69 x[2,8] +73 x[3,8] +9 x[4,8] +13 x[5,8] +11 x[6,8] +80 x[7,8] +31 x[8,8] +23 x[9,8] +90 x[10,8] +74 x[11,8] +27 x[12,8] +38 x[13,8] +11 x[14,8] +41 x[15,8] +82 x[16,8] +58 x[17,8] +20 x[18,8] +24 x[19,8] +71 x[20,8] +2 x[21,8] +7 x[22,8] +81 x[23,8] +1 x[24,8] +26 x[25,8] +36 x[26,8] +2 x[27,8] +87 x[28,8] +71 x[29,8] +76 x[0,9] +74 x[1,9] +94 x[2,9] +89 x[3,9] +61 x[4,9] +87 x[5,9] +32 x[6,9] +83 x[7,9] +49 x[8,9] +36 x[9,9] +50 x[10,9] +82 x[11,9] +83 x[12,9] +82 x[13,9] +91 x[14,9] +1 x[15,9] +44 x[16,9] +16 x[17,9] +10 x[18,9] +61 x[19,9] +71 x[20,9] +41 x[21,9] +54 x[22,9] +6 x[23,9] +93 x[24,9] +42 x[25,9] +74 x[26,9] +9 x[27,9] +76 x[28,9] +17 x[29,9] +24 x[0,10] +98 x[1,10] +64 x[2,10] +8 x[3,10] +99 x[4,10] +30 x[5,10] +96 x[6,10] +99 x[7,10] +88 x[8,10] +75 x[9,10] +49 x[10,10] +65 x[11,10] +68 x[12,10] +61 x[13,10] +22 x[14,10] +20 x[15,10] +9 x[16,10] +73 x[17,10] +48 x[18,10] +92 x[19,10] +68 x[20,10] +35 x[21,10] +26 x[22,10] +28 x[23,10] +49 x[24,10] +52 x[25,10] +43 x[26,10] +16 x[27,10] +4 x[28,10] +5 x[29,10] +49 x[0,11] +99 x[1,11] +48 x[2,11] +64 x[3,11] +15 x[4,11] +43 x[5,11] +93 x[6,11] +92 x[7,11] +38 x[8,11] +93 x[9,11] +27 x[10,11] +25 x[11,11] +16 x[12,11] +98 x[13,11] +10 x[14,11] +62 x[15,11] +88 x[16,11] +8 x[17,11] +46 x[18,11] +50 x[19,11] +35 x[20,11] +63 x[21,11] +41 x[22,11] +83 x[23,11] +27 x[24,11] +8 x[25,11] +86 x[26,11] +1 x[27,11] +89 x[28,11] +32 x[29,11] +48 x[0,12] +87 x[1,12] +83 x[2,12] +77 x[3,12] +5 x[4,12] +77 x[5,12] +81 x[6,12] +88 x[7,12] +80 x[8,12] +37 x[9,12] +74 x[10,12] +71 x[11,12] +49 x[12,12] +27 x[13,12] +99 x[14,12] +81 x[15,12] +7 x[16,12] +27 x[17,12] +95 x[18,12] +54 x[19,12] +18 x[20,12] +10 x[22,12] +88 x[23,12] +96 x[24,12] +23 x[25,12] +96 x[26,12] +73 x[27,12] +23 x[28,12] +15 x[29,12] +30 x[0,13] +24 x[1,13] +6 x[2,13] +28 x[3,13] +78 x[5,13] +72 x[6,13] +47 x[7,13] +16 x[8,13] +32 x[9,13] +37 x[10,13] +77 x[11,13] +17 x[12,13] +57 x[13,13] +94 x[14,13] +41 x[15,13] +17 x[16,13] +72 x[17,13] +27 x[18,13] +57 x[19,13] +12 x[20,13] +86 x[21,13] +72 x[22,13] +82 x[23,13] +53 x[26,13] +28 x[27,13] +93 x[28,13] +51 x[29,13] +61 x[0,14] +97 x[1,14] +46 x[2,14] +97 x[3,14] +17 x[4,14] +39 x[5,14] +52 x[6,14] +89 x[7,14] +26 x[8,14] +84 x[9,14] +6 x[10,14] +31 x[11,14] +96 x[12,14] +58 x[13,14] +54 x[14,14] +75 x[15,14] +12 x[16,14] +98 x[17,14] +95 x[18,14] +30 x[19,14] +39 x[20,14] +95 x[21,14] +50 x[22,14] +53 x[23,14] +33 x[24,14] +62 x[25,14] +96 x[26,14] +7 x[27,14] +94 x[28,14] +64 x[29,14] +1300 y[0] +138 y[1] +968 y[2] +988 y[3] +215 y[4] +767 y[5] +908 y[6] +1262 y[7] +675 y[8] +821 y[9] +489 y[10] +339 y[11] +923 y[12] +709 y[13] +448 y[14] 
Subject to
 auto_c_000000000: +1 x[0,0] +1 x[0,1] +1 x[0,2] +1 x[0,3] +1 x[0,4] +1 x[0,5] +1 x[0,6] +1 x[0,7] +1 x[0,8] +1 x[0,9] +1 x[0,10] +1 x[0,11] +1 x[0,12] +1 x[0,13] +1 x[0,14]  = 1
 auto_c_000000001: +1 x[1,0] +1 x[1,1] +1 x[1,2] +1 x[1,3] +1 x[1,4] +1 x[1,5] +1 x[1,6] +1 x[1,7] +1 x[1,8] +1 x[1,9] +1 x[1,10] +1 x[1,11] +1 x[1,12] +1 x[1,13] +1 x[1,14]  = 1
 auto_c_000000002: +1 x[2,0] +1 x[2,1] +1 x[2,2] +1 x[2,3] +1 x[2,4] +1 x[2,5] +1 x[2,6] +1 x[2,7] +1 x[2,8] +1 x[2,9] +1 x[2,10] +1 x[2,11] +1 x[2,12] +1 x[2,13] +1 x[2,14]  = 1
 auto_c_000000003: +1 x[3,0] +1 x[3,1] +1 x[3,2] +1 x[3,3] +1 x[3,4] +1 x[3,5] +1 x[3,6] +1 x[3,7] +1 x[3,8] +1 x[3,9] +1 x[3,10] +1 x[3,11] +1 x[3,12] +1 x[3,13] +1 x[3,14]  = 1
 auto_c_000000004: +1 x[4,0] +1 x[4,1] +1 x[4,2] +1 x[4,3] +1 x[4,4] +1 x[4,5] +1 x[4,6] +1 x[4,7] +1 x[4,8] +1 x[4,9] +1 x[4,10] +1 x[4,11] +1 x[4,12] +1 x[4,13] +1 x[4,14]  = 1
 auto_c_000000005: +1 x[5,0] +1 x[5,1] +1 x[5,2] +1 x[5,3] +1 x[5,4] +1 x[5,5] +1 x[5,6] +1 x[5,7] +1 x[5,8] +1 x[5,9] +1 x[5,10] +1 x[5,11] +1 x[5,12] +1 x[5,13] +1 x[5,14]  = 1
 auto_c_000000006: +1 x[6,0] +1 x[6,1] +1 x[6,2] +1 x[6,3] +1 x[6,4] +1 x[6,5] +1 x[6,6] +1 x[6,7] +1 x[6,8] +1 x[6,9] +1 x[6,10] +1 x[6,11] +1 x[6,12] +1 x[6,13] +1 x[6,14]  = 1
 auto_c_000000007: +1 x[7,0] +1 x[7,1] +1 x[7,2] +1 x[7,3] +1 x[7,4] +1 x[7,5] +1 x[7,6] +1 x[7,7] +1 x[7,8] +1 x[7,9] +1 x[7,10] +1 x[7,11] +1 x[7,12] +1 x[7,13] +1 x[7,14]  = 1
 auto_c_000000008: +1 x[8,0] +1 x[8,1] +1 x[8,2] +1 x[8,3] +1 x[8,4] +1 x[8,5] +1 x[8,6] +1 x[8,7] +1 x[8,8] +1 x[8,9] +1 x[8,10] +1 x[8,11] +1 x[8,12] +1 x[8,13] +1 x[8,14]  = 1
 auto_c_000000009: +1 x[9,0] +1 x[9,1] +1 x[9,2] +1 x[9,3] +1 x[9,4] +1 x[9,5] +1 x[9,6] +1 x[9,7] +1 x[9,8] +1 x[9,9] +1 x[9,10] +1 x[9,11] +1 x[9,12] +1 x[9,13] +1 x[9,14]  = 1
 auto_c_000000010: +1 x[10,0] +1 x[10,1] +1 x[10,2] +1 x[10,3] +1 x[10,4] +1 x[10,5] +1 x[10,6] +1 x[10,7] +1 x[10,8] +1 x[10,9] +1 x[10,10] +1 x[10,11] +1 x[10,12] +1 x[10,13] +1 x[10,14]  = 1
 auto_c_000000011: +1 x[11,0] +1 x[11,1] +1 x[11,2] +1 x[11,3] +1 x[11,4] +1 x[11,5] +1 x[11,6] +1 x[11,7] +1 x[11,8] +1 x[11,9] +1 x[11,10] +1 x[11,11] +1 x[11,12] +1 x[11,13] +1 x[11,14]  = 1
 auto_c_000000012: +1 x[12,0] +1 x[12,1] +1 x[12,2] +1 x[12,3] +1 x[12,4] +1 x[12,5] +1 x[12,6] +1 x[12,7] +1 x[12,8] +1 x[12,9] +1 x[12,10] +1 x[12,11] +1 x[12,12] +1 x[12,13] +1 x[12,14]  = 1
 auto_c_000000013: +1 x[13,0] +1 x[13,1] +1 x[13,2] +1 x[13,3] +1 x[13,4] +1 x[13,5] +1 x[13,6] +1 x[13,7] +1 x[13,8] +1 x[13,9] +1 x[13,10] +1 x[13,11] +1 x[13,12] +1 x[13,13] +1 x[13,14]  = 1
 auto_c_000000014: +1 x[14,0] +1 x[14,1] +1 x[14,2] +1 x[14,3] +1 x[14,4] +1 x[14,5] +1 x[14,6] +1 x[14,7] +1 x[14,8] +1 x[14,9] +1 x[14,10] +1 x[14,11] +1 x[14,12] +1 x[14,13] +1 x[14,14]  = 1
 auto_c_000000015: +1 x[15,0] +1 x[15,1] +1 x[15,2] +1 x[15,3] +1 x[15,4] +1 x[15,5] +1 x[15,6] +1 x[15,7] +1 x[15,8] +1 x[15,9] +1 x[15,10] +1 x[15,11] +1 x[15,12] +1 x[15,13] +1 x[15,14]  = 1
 auto_c_000000016: +1 x[16,0] +1 x[16,1] +1 x[16,2] +1 x[16,3] +1 x[16,4] +1 x[16,5] +1 x[16,6] +1 x[16,7] +1 x[16,8] +1 x[16,9] +1 x[16,10] +1 x[16,11] +1 x[16,12] +1 x[16,13] +1 x[16,14]  = 1
 auto_c_000000017: +1 x[17,0] +1 x[17,1] +1 x[17,2] +1 x[17,3] +1 x[17,4] +1 x[17,5] +1 x[17,6] +1 x[17,7] +1 x[17,8] +1 x[17,9] +1 x[17,10] +1 x[17,11] +1 x[17,12] +1 x[17,13] +1 x[17,14]  = 1
 auto_c_000000018: +1 x[18,0] +1 x[18,1] +1 x[18,2] +1 x[18,3] +1 x[18,4] +1 x[18,5] +1 x[18,6] +1 x[18,7] +1 x[18,8] +1 x[18,9] +1 x[18,10] +1 x[18,11] +1 x[18,12] +1 x[18,13] +1 x[18,14]  = 1
 auto_c_000000019: +1 x[19,0] +1 x[19,1] +1 x[19,2] +1 x[19,3] +1 x[19,4] +1 x[19,5] +1 x[19,6] +1 x[19,7] +1 x[19,8] +1 x[19,9] +1 x[19,10] +1 x[19,11] +1 x[19,12] +1 x[19,13] +1 x[19,14]  = 1
 auto_c_000000020: +1 x[20,0] +1 x[20,1] +1 x[20,2] +1 x[20,3] +1 x[20,4] +1 x[20,5] +1 x[20,6] +1 x[20,7] +1 x[20,8] +1 x[20,9] +1 x[20,10] +1 x[20,11] +1 x[20,12] +1 x[20,13] +1 x[20,14]  = 1
 auto_c_000000021: +1 x[21,0] +1 x[21,1] +1 x[21,2] +1 x[21,3] +1 x[21,4] +1 x[21,5] +1 x[21,6] +1 x[21,7] +1 x[21,8] +1 x[21,9] +1 x[21,10] +1 x[21,11] +1 x[21,12] +1 x[21,13] +1 x[21,14]  = 1
 auto_c_000000022: +1 x[22,0] +1 x[22,1] +1 x[22,2] +1 x[22,3] +1 x[22,4] +1 x[22,5] +1 x[22,6] +1 x[22,7] +1 x[22,8] +1 x[22,9] +1 x[22,10] +1 x[22,11] +1 x[22,12] +1 x[22,13] +1 x[22,14]  = 1
 auto_c_000000023: +1 x[23,0] +1 x[23,1] +1 x[23,2] +1 x[23,3] +1 x[23,4] +1 x[23,5] +1 x[23,6] +1 x[23,7] +1 x[23,8] +1 x[23,9] +1 x[23,10] +1 x[23,11] +1 x[23,12] +1 x[23,13] +1 x[23,14]  = 1
 auto_c_000000024: +1 x[24,0] +1 x[24,1] +1 x[24,2] +1 x[24,3] +1 x[24,4] +1 x[24,5] +1 x[24,6] +1 x[24,7] +1 x[24,8] +1 x[24,9] +1 x[24,10] +1 x[24,11] +1 x[24,12] +1 x[24,13] +1 x[24,14]  = 1
 auto_c_000000025: +1 x[25,0] +1 x[25,1] +1 x[25,2] +1 x[25,3] +1 x[25,4] +1 x[25,5] +1 x[25,6] +1 x[25,7] +1 x[25,8] +1 x[25,9] +1 x[25,10] +1 x[25,11] +1 x[25,12] +1 x[25,13] +1 x[25,14]  = 1
 auto_c_000000026: +1 x[26,0] +1 x[26,1] +1 x[26,2] +1 x[26,3] +1 x[26,4] +1 x[26,5] +1 x[26,6] +1 x[26,7] +1 x[26,8] +1 x[26,9] +1 x[26,10] +1 x[26,11] +1 x[26,12] +1 x[26,13] +1 x[26,14]  = 1
 auto_c_000000027: +1 x[27,0] +1 x[27,1] +1 x[27,2] +1 x[27,3] +1 x[27,4] +1 x[27,5] +1 x[27,6] +1 x[27,7] +1 x[27,8] +1 x[27,9] +1 x[27,10] +1 x[27,11] +1 x[27,12] +1 x[27,13] +1 x[27,14]  = 1
 auto_c_000000028: +1 x[28,0] +1 x[28,1] +1 x[28,2] +1 x[28,3] +1 x[28,4] +1 x[28,5] +1 x[28,6] +1 x[28,7] +1 x[28,8] +1 x[28,9] +1 x[28,10] +1 x[28,11] +1 x[28,12] +1 x[28,13] +1 x[28,14]  = 1
 auto_c_000000029: +1 x[29,0] +1 x[29,1] +1 x[29,2] +1 x[29,3] +1 x[29,4] +1 x[29,5] +1 x[29,6] +1 x[29,7] +1 x[29,8] +1 x[29,9] +1 x[29,10] +1 x[29,11] +1 x[29,12] +1 x[29,13] +1 x[29,14]  = 1
 auto_c_000000030: +10 x[0,0] +11 x[1,0] +18 x[2,0] +11 x[3,0] +18 x[4,0] +26 x[5,0] +17 x[6,0] +27 x[7,0] +28 x[8,0] +20 x[9,0] +19 x[10,0] +11 x[11,0] +17 x[12,0] +20 x[13,0] +12 x[14,0] +17 x[15,0] +18 x[16,0] +23 x[17,0] +10 x[18,0] +23 x[19,0] +22 x[20,0] +11 x[21,0] +21 x[22,0] +22 x[23,0] +13 x[24,0] +28 x[25,0] +21 x[26,0] +14 x[27,0] +13 x[28,0] +19 x[29,0] -107 y[0]  <= 0
 auto_c_000000031: +10 x[0,1] +11 x[1,1] +18 x[2,1] +11 x[3,1] +18 x[4,1] +26 x[5,1] +17 x[6,1] +27 x[7,1] +28 x[8,1] +20 x[9,1] +19 x[10,1] +11 x[11,1] +17 x[12,1] +20 x[13,1] +12 x[14,1] +17 x[15,1] +18 x[16,1] +23 x[17,1] +10 x[18,1] +23 x[19,1] +22 x[20,1] +11 x[21,1] +21 x[22,1] +22 x[23,1] +13 x[24,1] +28 x[25,1] +21 x[26,1] +14 x[27,1] +13 x[28,1] +19 x[29,1] -26 y[1]  <= 0
 auto_c_000000032: +10 x[0,2] +11 x[1,2] +18 x[2,2] +11 x[3,2] +18 x[4,2] +26 x[5,2] +17 x[6,2] +27 x[7,2] +28 x[8,2] +20 x[9,2] +19 x[10,2] +11 x[11,2] +17 x[12,2] +20 x[13,2] +12 x[14,2] +17 x[15,2] +18 x[16,2] +23 x[17,2] +10 x[18,2] +23 x[19,2] +22 x[20,2] +11 x[21,2] +21 x[22,2] +22 x[23,2] +13 x[24,2] +28 x[25,2] +21 x[26,2] +14 x[27,2] +13 x[28,2] +19 x[29,2] -107 y[2]  <= 0
 auto_c_000000033: +10 x[0,3] +11 x[1,3] +18 x[2,3] +11 x[3,3] +18 x[4,3] +26 x[5,3] +17 x[6,3] +27 x[7,3] +28 x[8,3] +20 x[9,3] +19 x[10,3] +11 x[11,3] +17 x[12,3] +20 x[13,3] +12 x[14,3] +17 x[15,3] +18 x[16,3] +23 x[17,3] +10 x[18,3] +23 x[19,3] +22 x[20,3] +11 x[21,3] +21 x[22,3] +22 x[23,3] +13 x[24,3] +28 x[25,3] +21 x[26,3] +14 x[27,3] +13 x[28,3] +19 x[29,3] -123 y[3]  <= 0
 auto_c_000000034: +10 x[0,4] +11 x[1,4] +18 x[2,4] +11 x[3,4] +18 x[4,4] +26 x[5,4] +17 x[6,4] +27 x[7,4] +28 x[8,4] +20 x[9,4] +19 x[10,4] +11 x[11,4] +17 x[12,4] +20 x[13,4] +12 x[14,4] +17 x[15,4] +18 x[16,4] +23 x[17,4] +10 x[18,4] +23 x[19,4] +22 x[20,4] +11 x[21,4] +21 x[22,4] +22 x[23,4] +13 x[24,4] +28 x[25,4] +21 x[26,4] +14 x[27,4] +13 x[28,4] +19 x[29,4] -21 y[4]  <= 0
 auto_c_000000035: +10 x[0,5] +11 x[1,5] +18 x[2,5] +11 x[3,5] +18 x[4,5] +26 x[5,5] +17 x[6,5] +27 x[7,5] +28 x[8,5] +20 x[9,5] +19 x[10,5] +11 x[11,5] +17 x[12,5] +20 x[13,5] +12 x[14,5] +17 x[15,5] +18 x[16,5] +23 x[17,5] +10 x[18,5] +23 x[19,5] +22 x[20,5] +11 x[21,5] +21 x[22,5] +22 x[23,5] +13 x[24,5] +28 x[25,5] +21 x[26,5] +14 x[27,5] +13 x[28,5] +19 x[29,5] -119 y[5]  <= 0
 auto_c_000000036: +10 x[0,6] +11 x[1,6] +18 x[2,6] +11 x[3,6] +18 x[4,6] +26 x[5,6] +17 x[6,6] +27 x[7,6] +28 x[8,6] +20 x[9,6] +19 x[10,6] +11 x[11,6] +17 x[12,6] +20 x[13,6] +12 x[14,6] +17 x[15,6] +18 x[16,6] +23 x[17,6] +10 x[18,6] +23 x[19,6] +22 x[20,6] +11 x[21,6] +21 x[22,6] +22 x[23,6] +13 x[24,6] +28 x[25,6] +21 x[26,6] +14 x[27,6] +13 x[28,6] +19 x[29,6] -124 y[6]  <= 0
 auto_c_000000037: +10 x[0,7] +11 x[1,7] +18 x[2,7] +11 x[3,7] +18 x[4,7] +26 x[5,7] +17 x[6,7] +27 x[7,7] +28 x[8,7] +20 x[9,7] +19 x[10,7] +11 x[11,7] +17 x[12,7] +20 x[13,7] +12 x[14,7] +17 x[15,7] +18 x[16,7] +23 x[17,7] +10 x[18,7] +23 x[19,7] +22 x[20,7] +11 x[21,7] +21 x[22,7] +22 x[23,7] +13 x[24,7] +28 x[25,7] +21 x[26,7] +14 x[27,7] +13 x[28,7] +19 x[29,7] -116 y[7]  <= 0
 auto_c_000000038: +10 x[0,8] +11 x[1,8] +18 x[2,8] +11 x[3,8] +18 x[4,8] +26 x[5,8] +17 x[6,8] +27 x[7,8] +28 x[8,8] +20 x[9,8] +19 x[10,8] +11 x[11,8] +17 x[12,8] +20 x[13,8] +12 x[14,8] +17 x[15,8] +18 x[16,8] +23 x[17,8] +10 x[18,8] +23 x[19,8] +22 x[20,8] +11 x[21,8] +21 x[22,8] +22 x[23,8] +13 x[24,8] +28 x[25,8] +21 x[26,8] +14 x[27,8] +13 x[28,8] +19 x[29,8] -70 y[8]  <= 0
 auto_c_000000039: +10 x[0,9] +11 x[1,9] +18 x[2,9] +11 x[3,9] +18 x[4,9] +26 x[5,9] +17 x[6,9] +27 x[7,9] +28 x[8,9] +20 x[9,9] +19 x[10,9] +11 x[11,9] +17 x[12,9] +20 x[13,9] +12 x[14,9] +17 x[15,9] +18 x[16,9] +23 x[17,9] +10 x[18,9] +23 x[19,9] +22 x[20,9] +11 x[21,9] +21 x[22,9] +22 x[23,9] +13 x[24,9] +28 x[25,9] +21 x[26,9] +14 x[27,9] +13 x[28,9] +19 x[29,9] -89 y[9]  <= 0
 auto_c_000000040: +10 x[0,10] +11 x[1,10] +18 x[2,10] +11 x[3,10] +18 x[4,10] +26 x[5,10] +17 x[6,10] +27 x[7,10] +28 x[8,10] +20 x[9,10] +19 x[10,10] +11 x[11,10] +17 x[12,10] +20 x[13,10] +12 x[14,10] +17 x[15,10] +18 x[16,10] +23 x[17,10] +10 x[18,10] +23 x[19,10] +22 x[20,10] +11 x[21,10] +21 x[22,10] +22 x[23,10] +13 x[24,10] +28 x[25,10] +21 x[26,10] +14 x[27,10] +13 x[28,10] +19 x[29,10] -70 y[10]  <= 0
 auto_c_000000041: +10 x[0,11] +11 x[1,11] +18 x[2,11] +11 x[3,11] +18 x[4,11] +26 x[5,11] +17 x[6,11] +27 x[7,11] +28 x[8,11] +20 x[9,11] +19 x[10,11] +11 x[11,11] +17 x[12,11] +20 x[13,11] +12 x[14,11] +17 x[15,11] +18 x[16,11] +23 x[17,11] +10 x[18,11] +23 x[19,11] +22 x[20,11] +11 x[21,11] +21 x[22,11] +22 x[23,11] +13 x[24,11] +28 x[25,11] +21 x[26,11] +14 x[27,11] +13 x[28,11] +19 x[29,11] -26 y[11]  <= 0
 auto_c_000000042: +10 x[0,12] +11 x[1,12] +18 x[2,12] +11 x[3,12] +18 x[4,12] +26 x[5,12] +17 x[6,12] +27 x[7,12] +28 x[8,12] +20 x[9,12] +19 x[10,12] +11 x[11,12] +17 x[12,12] +20 x[13,12] +12 x[14,12] +17 x[15,12] +18 x[16,12] +23 x[17,12] +10 x[18,12] +23 x[19,12] +22 x[20,12] +11 x[21,12] +21 x[22,12] +22 x[23,12] +13 x[24,12] +28 x[25,12] +21 x[26,12] +14 x[27,12] +13 x[28,12] +19 x[29,12] -66 y[12]  <= 0
 auto_c_000000043: +10 x[0,13] +11 x[1,13] +18 x[2,13] +11 x[3,13] +18 x[4,13] +26 x[5,13] +17 x[6,13] +27 x[7,13] +28 x[8,13] +20 x[9,13] +19 x[10,13] +11 x[11,13] +17 x[12,13] +20 x[13,13] +12 x[14,13] +17 x[15,13] +18 x[16,13] +23 x[17,13] +10 x[18,13] +23 x[19,13] +22 x[20,13] +11 x[21,13] +21 x[22,13] +22 x[23,13] +13 x[24,13] +28 x[25,13] +21 x[26,13] +14 x[27,13] +13 x[28,13] +19 x[29,13] -122 y[13]  <= 0
 auto_c_000000044: +10 x[0,14] +11 x[1,14] +18 x[2,14] +11 x[3,14] +18 x[4,14] +26 x[5,14] +17 x[6,14] +27 x[7,14] +28 x[8,14] +20 x[9,14] +19 x[10,14] +11 x[11,14] +17 x[12,14] +20 x[13,14] +12 x[14,14] +17 x[15,14] +18 x[16,14] +23 x[17,14] +10 x[18,14] +23 x[19,14] +22 x[20,14] +11 x[21,14] +21 x[22,14] +22 x[23,14] +13 x[24,14] +28 x[25,14] +21 x[26,14] +14 x[27,14] +13 x[28,14] +19 x[29,14] -58 y[14]  <= 0
Bounds
 0 <= x[0,0] <= 1
 0 <= x[1,0] <= 1
 0 <= x[2,0] <= 1
 0 <= x[3,0] <= 1
 0 <= x[4,0] <= 1
 0 <= x[5,0] <= 1
 0 <= x[6,0] <= 1
 0 <= x[7,0] <= 1
 0 <= x[8,0] <= 1
 0 <= x[9,0] <= 1
 0 <= x[10,0] <= 1
 0 <= x[11,0] <= 1
 0 <= x[12,0] <= 1
 0 <= x[13,0] <= 1
 0 <= x[14,0] <= 1
 0 <= x[15,0] <= 1
 0 <= x[16,0] <= 1
 0 <= x[17,0] <= 1
 0 <= x[18,0] <= 1
 0 <= x[19,0] <= 1
 0 <= x[20,0] <= 1
 0 <= x[21,0] <= 1
 0 <= x[22,0] <= 1
 0 <= x[23,0] <= 1
 0 <= x[24,0] <= 1
 0 <= x[25,0] <= 1
 0 <= x[26,0] <= 1
 0 <= x[27,0] <= 1
 0 <= x[28,0] <= 1
 0 <= x[29,0] <= 1
 0 <= x[0,1] <= 1
 0 <= x[1,1] <= 1
 0 <= x[2,1] <= 1
 0 <= x[3,1] <= 1
 0 <= x[4,1] <= 1
 0 <= x[5,1] <= 1
 0 <= x[6,1] <= 1
 0 <= x[7,1] <= 1
 0 <= x[8,1] <= 1
 0 <= x[9,1] <= 1
 0 <= x[10,1] <= 1
 0 <= x[11,1] <= 1
 0 <= x[12,1] <= 1
 0 <= x[13,1] <= 1
 0 <= x[14,1] <= 1
 0 <= x[15,1] <= 1
 0 <= x[16,1] <= 1
 0 <= x[17,1] <= 1
 0 <= x[18,1] <= 1
 0 <= x[19,1] <= 1
 0 <= x[20,1] <= 1
 0 <= x[21,1] <= 1
 0 <= x[22,1] <= 1
 0 <= x[23,1] <= 1
 0 <= x[24,1] <= 1
 0 <= x[25,1] <= 1
 0 <= x[26,1] <= 1
 0 <= x[27,1] <= 1
 0 <= x[28,1] <= 1
 0 <= x[29,1] <= 1
 0 <= x[0,2] <= 1
 0 <= x[1,2] <= 1
 0 <= x[2,2] <= 1
 0 <= x[3,2] <= 1
 0 <= x[4,2] <= 1
 0 <= x[5,2] <= 1
 0 <= x[6,2] <= 1
 0 <= x[7,2] <= 1
 0 <= x[8,2] <= 1
 0 <= x[9,2] <= 1
 0 <= x[10,2] <= 1
 0 <= x[11,2] <= 1
 0 <= x[12,2] <= 1
 0 <= x[13,2] <= 1
 0 <= x[14,2] <= 1
 0 <= x[15,2] <= 1
 0 <= x[16,2] <= 1
 0 <= x[17,2] <= 1
 0 <= x[18,2] <= 1
 0 <= x[19,2] <= 1
 0 <= x[20,2] <= 1
 0 <= x[21,2] <= 1
 0 <= x[22,2] <= 1
 0 <= x[23,2] <= 1
 0 <= x[24,2] <= 1
 0 <= x[25,2] <= 1
 0 <= x[26,2] <= 1
 0 <= x[27,2] <= 1
 0 <= x[28,2] <= 1
 0 <= x[29,2] <= 1
 0 <= x[0,3] <= 1
 0 <= x[1,3] <= 1
 0 <= x[2,3] <= 1
 0 <= x[3,3] <= 1
 0 <= x[4,3] <= 1
 0 <= x[5,3] <= 1
 0 <= x[6,3] <= 1
 0 <= x[7,3] <= 1
 0 <= x[8,3] <= 1
 0 <= x[9,3] <= 1
 0 <= x[10,3] <= 1
 0 <= x[11,3] <= 1
 0 <= x[12,3] <= 1
 0 <= x[13,3] <= 1
 0 <= x[14,3] <= 1
 0 <= x[15,3] <= 1
 0 <= x[16,3] <= 1
 0 <= x[17,3] <= 1
 0 <= x[18,3] <= 1
 0 <= x[19,3] <= 1
 0 <= x[20,3] <= 1
 0 <= x[21,3] <= 1
 0 <= x[22,3] <= 1
 0 <= x[23,3] <= 1
 0 <= x[24,3] <= 1
 0 <= x[25,3] <= 1
 0 <= x[26,3] <= 1
 0 <= x[27,3] <= 1
 0 <= x[28,3] <= 1
 0 <= x[29,3] <= 1
 0 <= x[0,4] <= 1
 0 <= x[1,4] <= 1
 0 <= x[2,4] <= 1
 0 <= x[3,4] <= 1
 0 <= x[4,4] <= 1
 0 <= x[5,4] <= 1
 0 <= x[6,4] <= 1
 0 <= x[7,4] <= 1
 0 <= x[8,4] <= 1
 0 <= x[9,4] <= 1
 0 <= x[10,4] <= 1
 0 <= x[11,4] <= 1
 0 <= x[12,4] <= 1
 0 <= x[13,4] <= 1
 0 <= x[14,4] <= 1
 0 <= x[15,4] <= 1
 0 <= x[16,4] <= 1
 0 <= x[17,4] <= 1
 0 <= x[18,4] <= 1
 0 <= x[19,4] <= 1
 0 <= x[20,4] <= 1
 0 <= x[21,4] <= 1
 0 <= x[22,4] <= 1
 0 <= x[23,4] <= 1
 0 <= x[24,4] <= 1
 0 <= x[25,4] <= 1
 0 <= x[26,4] <= 1
 0 <= x[27,4] <= 1
 0 <= x[28,4] <= 1
 0 <= x[29,4] <= 1
 0 <= x[0,5] <= 1
 0 <= x[1,5] <= 1
 0 <= x[2,5] <= 1
 0 <= x[3,5] <= 1
 0 <= x[4,5] <= 1
 0 <= x[5,5] <= 1
 0 <= x[6,5] <= 1
 0 <= x[7,5] <= 1
 0 <= x[8,5] <= 1
 0 <= x[9,5] <= 1
 0 <= x[10,5] <= 1
 0 <= x[11,5] <= 1
 0 <= x[12,5] <= 1
 0 <= x[13,5] <= 1
 0 <= x[14,5] <= 1
 0 <= x[15,5] <= 1
 0 <= x[16,5] <= 1
 0 <= x[17,5] <= 1
 0 <= x[18,5] <= 1
 0 <= x[19,5] <= 1
 0 <= x[20,5] <= 1
 0 <= x[21,5] <= 1
 0 <= x[22,5] <= 1
 0 <= x[23,5] <= 1
 0 <= x[24,5] <= 1
 0 <= x[25,5] <= 1
 0 <= x[26,5] <= 1
 0 <= x[27,5] <= 1
 0 <= x[28,5] <= 1
 0 <= x[29,5] <= 1
 0 <= x[0,6] <= 1
 0 <= x[1,6] <= 1
 0 <= x[2,6] <= 1
 0 <= x[3,6] <= 1
 0 <= x[4,6] <= 1
 0 <= x[5,6] <= 1
 0 <= x[6,6] <= 1
 0 <= x[7,6] <= 1
 0 <= x[8,6] <= 1
 0 <= x[9,6] <= 1
 0 <= x[10,6] <= 1
 0 <= x[11,6] <= 1
 0 <= x[12,6] <= 1
 0 <= x[13,6] <= 1
 0 <= x[14,6] <= 1
 0 <= x[15,6] <= 1
 0 <= x[16,6] <= 1
 0 <= x[17,6] <= 1
 0 <= x[18,6] <= 1
 0 <= x[19,6] <= 1
 0 <= x[20,6] <= 1
 0 <= x[21,6] <= 1
 0 <= x[22,6] <= 1
 0 <= x[23,6] <= 1
 0 <= x[24,6] <= 1
 0 <= x[25,6] <= 1
 0 <= x[26,6] <= 1
 0 <= x[27,6] <= 1
 0 <= x[28,6] <= 1
 0 <= x[29,6] <= 1
 0 <= x[0,7] <= 1
 0 <= x[1,7] <= 1
 0 <= x[2,7] <= 1
 0 <= x[3,7] <= 1
 0 <= x[4,7] <= 1
 0 <= x[5,7] <= 1
 0 <= x[6,7] <= 1
 0 <= x[7,7] <= 1
 0 <= x[8,7] <= 1
 0 <= x[9,7] <= 1
 0 <= x[10,7] <= 1
 0 <= x[11,7] <= 1
 0 <= x[12,7] <= 1
 0 <= x[13,7] <= 1
 0 <= x[14,7] <= 1
 0 <= x[15,7] <= 1
 0 <= x[16,7] <= 1
 0 <= x[17,7] <= 1
 0 <= x[18,7] <= 1
 0 <= x[19,7] <= 1
 0 <= x[20,7] <= 1
 0 <= x[21,7] <= 1
 0 <= x[22,7] <= 1
 0 <= x[23,7] <= 1
 0 <= x[24,7] <= 1
 0 <= x[25,7] <= 1
 0 <= x[26,7] <= 1
 0 <= x[27,7] <= 1
 0 <= x[28,7] <= 1
 0 <= x[29,7] <= 1
 0 <= x[0,8] <= 1
 0 <= x[1,8] <= 1
 0 <= x[2,8] <= 1
 0 <= x[3,8] <= 1
 0 <= x[4,8] <= 1
 0 <= x[5,8] <= 1
 0 <= x[6,8] <= 1
 0 <= x[7,8] <= 1
 0 <= x[8,8] <= 1
 0 <= x[9,8] <= 1
 0 <= x[10,8] <= 1
 0 <= x[11,8] <= 1
 0 <= x[12,8] <= 1
 0 <= x[13,8] <= 1
 0 <= x[14,8] <= 1
 0 <= x[15,8] <= 1
 0 <= x[16,8] <= 1
 0 <= x[17,8] <= 1
 0 <= x[18,8] <= 1
 0 <= x[19,8] <= 1
 0 <= x[20,8] <= 1
 0 <= x[21,8] <= 1
 0 <= x[22,8] <= 1
 0 <= x[23,8] <= 1
 0 <= x[24,8] <= 1
 0 <= x[25,8] <= 1
 0 <= x[26,8] <= 1
 0 <= x[27,8] <= 1
 0 <= x[28,8] <= 1
 0 <= x[29,8] <= 1
 0 <= x[0,9] <= 1
 0 <= x[1,9] <= 1
 0 <= x[2,9] <= 1
 0 <= x[3,9] <= 1
 0 <= x[4,9] <= 1
 0 <= x[5,9] <= 1
 0 <= x[6,9] <= 1
 0 <= x[7,9] <= 1
 0 <= x[8,9] <= 1
 0 <= x[9,9] <= 1
 0 <= x[10,9] <= 1
 0 <= x[11,9] <= 1
 0 <= x[12,9] <= 1
 0 <= x[13,9] <= 1
 0 <= x[14,9] <= 1
 0 <= x[15,9] <= 1
 0 <= x[16,9] <= 1
 0 <= x[17,9] <= 1
 0 <= x[18,9] <= 1
 0 <= x[19,9] <= 1
 0 <= x[20,9] <= 1
 0 <= x[21,9] <= 1
 0 <= x[22,9] <= 1
 0 <= x[23,9] <= 1
 0 <= x[24,9] <= 1
 0 <= x[25,9] <= 1
 0 <= x[26,9] <= 1
 0 <= x[27,9] <= 1
 0 <= x[28,9] <= 1
 0 <= x[29,9] <= 1
 0 <= x[0,10] <= 1
 0 <= x[1,10] <= 1
 0 <= x[2,10] <= 1
 0 <= x[3,10] <= 1
 0 <= x[4,10] <= 1
 0 <= x[5,10] <= 1
 0 <= x[6,10] <= 1
 0 <= x[7,10] <= 1
 0 <= x[8,10] <= 1
 0 <= x[9,10] <= 1
 0 <= x[10,10] <= 1
 0 <= x[11,10] <= 1
 0 <= x[12,10] <= 1
 0 <= x[13,10] <= 1
 0 <= x[14,10] <= 1
 0 <= x[15,10] <= 1
 0 <= x[16,10] <= 1
 0 <= x[17,10] <= 1
 0 <= x[18,10] <= 1
 0 <= x[19,10] <= 1
 0 <= x[20,10] <= 1
 0 <= x[21,10] <= 1
 0 <= x[22,10] <= 1
 0 <= x[23,10] <= 1
 0 <= x[24,10] <= 1
 0 <= x[25,10] <= 1
 0 <= x[26,10] <= 1
 0 <= x[27,10] <= 1
 0 <= x[28,10] <= 1
 0 <= x[29,10] <= 1
 0 <= x[0,11] <= 1
 0 <= x[1,11] <= 1
 0 <= x[2,11] <= 1
 0 <= x[3,11] <= 1
 0 <= x[4,11] <= 1
 0 <= x[5,11] <= 1
 0 <= x[6,11] <= 1
 0 <= x[7,11] <= 1
 0 <= x[8,11] <= 1
 0 <= x[9,11] <= 1
 0 <= x[10,11] <= 1
 0 <= x[11,11] <= 1
 0 <= x[12,11] <= 1
 0 <= x[13,11] <= 1
 0 <= x[14,11] <= 1
 0 <= x[15,11] <= 1
 0 <= x[16,11] <= 1
 0 <= x[17,11] <= 1
 0 <= x[18,11] <= 1
 0 <= x[19,11] <= 1
 0 <= x[20,11] <= 1
 0 <= x[21,11] <= 1
 0 <= x[22,11] <= 1
 0 <= x[23,11] <= 1
 0 <= x[24,11] <= 1
 0 <= x[25,11] <= 1
 0 <= x[26,11] <= 1
 0 <= x[27,11] <= 1
 0 <= x[28,11] <= 1
 0 <= x[29,11] <= 1
 0 <= x[0,12] <= 1
 0 <= x[1,12] <= 1
 0 <= x[2,12] <= 1
 0 <= x[3,12] <= 1
 0 <= x[4,12] <= 1
 0 <= x[5,12] <= 1
 0 <= x[6,12] <= 1
 0 <= x[7,12] <= 1
 0 <= x[8,12] <= 1
 0 <= x[9,12] <= 1
 0 <= x[10,12] <= 1
 0 <= x[11,12] <= 1
 0 <= x[12,12] <= 1
 0 <= x[13,12] <= 1
 0 <= x[14,12] <= 1
 0 <= x[15,12] <= 1
 0 <= x[16,12] <= 1
 0 <= x[17,12] <= 1
 0 <= x[18,12] <= 1
 0 <= x[19,12] <= 1
 0 <= x[20,12] <= 1
 0 <= x[21,12] <= 1
 0 <= x[22,12] <= 1
 0 <= x[23,12] <= 1
 0 <= x[24,12] <= 1
 0 <= x[25,12] <= 1
 0 <= x[26,12] <= 1
 0 <= x[27,12] <= 1
 0 <= x[28,12] <= 1
 0 <= x[29,12] <= 1
 0 <= x[0,13] <= 1
 0 <= x[1,13] <= 1
 0 <= x[2,13] <= 1
 0 <= x[3,13] <= 1
 0 <= x[4,13] <= 1
 0 <= x[5,13] <= 1
 0 <= x[6,13] <= 1
 0 <= x[7,13] <= 1
 0 <= x[8,13] <= 1
 0 <= x[9,13] <= 1
 0 <= x[10,13] <= 1
 0 <= x[11,13] <= 1
 0 <= x[12,13] <= 1
 0 <= x[13,13] <= 1
 0 <= x[14,13] <= 1
 0 <= x[15,13] <= 1
 0 <= x[16,13] <= 1
 0 <= x[17,13] <= 1
 0 <= x[18,13] <= 1
 0 <= x[19,13] <= 1
 0 <= x[20,13] <= 1
 0 <= x[21,13] <= 1
 0 <= x[22,13] <= 1
 0 <= x[23,13] <= 1
 0 <= x[24,13] <= 1
 0 <= x[25,13] <= 1
 0 <= x[26,13] <= 1
 0 <= x[27,13] <= 1
 0 <= x[28,13] <= 1
 0 <= x[29,13] <= 1
 0 <= x[0,14] <= 1
 0 <= x[1,14] <= 1
 0 <= x[2,14] <= 1
 0 <= x[3,14] <= 1
 0 <= x[4,14] <= 1
 0 <= x[5,14] <= 1
 0 <= x[6,14] <= 1
 0 <= x[7,14] <= 1
 0 <= x[8,14] <= 1
 0 <= x[9,14] <= 1
 0 <= x[10,14] <= 1
 0 <= x[11,14] <= 1
 0 <= x[12,14] <= 1
 0 <= x[13,14] <= 1
 0 <= x[14,14] <= 1
 0 <= x[15,14] <= 1
 0 <= x[16,14] <= 1
 0 <= x[17,14] <= 1
 0 <= x[18,14] <= 1
 0 <= x[19,14] <= 1
 0 <= x[20,14] <= 1
 0 <= x[21,14] <= 1
 0 <= x[22,14] <= 1
 0 <= x[23,14] <= 1
 0 <= x[24,14] <= 1
 0 <= x[25,14] <= 1
 0 <= x[26,14] <= 1
 0 <= x[27,14] <= 1
 0 <= x[28,14] <= 1
 0 <= x[29,14] <= 1
 0 <= y[0] <= 1
 0 <= y[1] <= 1
 0 <= y[2] <= 1
 0 <= y[3] <= 1
 0 <= y[4] <= 1
 0 <= y[5] <= 1
 0 <= y[6] <= 1
 0 <= y[7] <= 1
 0 <= y[8] <= 1
 0 <= y[9] <= 1
 0 <= y[10] <= 1
 0 <= y[11] <= 1
 0 <= y[12] <= 1
 0 <= y[13] <= 1
 0 <= y[14] <= 1
Binaries
 x[0,0]
 x[1,0]
 x[2,0]
 x[3,0]
 x[4,0]
 x[5,0]
 x[6,0]
 x[7,0]
 x[8,0]
 x[9,0]
 x[10,0]
 x[11,0]
 x[12,0]
 x[13,0]
 x[14,0]
 x[15,0]
 x[16,0]
 x[17,0]
 x[18,0]
 x[19,0]
 x[20,0]
 x[21,0]
 x[22,0]
 x[23,0]
 x[24,0]
 x[25,0]
 x[26,0]
 x[27,0]
 x[28,0]
 x[29,0]
 x[0,1]
 x[1,1]
 x[2,1]
 x[3,1]
 x[4,1]
 x[5,1]
 x[6,1]
 x[7,1]
 x[8,1]
 x[9,1]
 x[10,1]
 x[11,1]
 x[12,1]
 x[13,1]
 x[14,1]
 x[15,1]
 x[16,1]
 x[17,1]
 x[18,1]
 x[19,1]
 x[20,1]
 x[21,1]
 x[22,1]
 x[23,1]
 x[24,1]
 x[25,1]
 x[26,1]
 x[27,1]
 x[28,1]
 x[29,1]
 x[0,2]
 x[1,2]
 x[2,2]
 x[3,2]
 x[4,2]
 x[5,2]
 x[6,2]
 x[7,2]
 x[8,2]
 x[9,2]
 x[10,2]
 x[11,2]
 x[12,2]
 x[13,2]
 x[14,2]
 x[15,2]
 x[16,2]
 x[17,2]
 x[18,2]
 x[19,2]
 x[20,2]
 x[21,2]
 x[22,2]
 x[23,2]
 x[24,2]
 x[25,2]
 x[26,2]
 x[27,2]
 x[28,2]
 x[29,2]
 x[0,3]
 x[1,3]
 x[2,3]
 x[3,3]
 x[4,3]
 x[5,3]
 x[6,3]
 x[7,3]
 x[8,3]
 x[9,3]
 x[10,3]
 x[11,3]
 x[12,3]
 x[13,3]
 x[14,3]
 x[15,3]
 x[16,3]
 x[17,3]
 x[18,3]
 x[19,3]
 x[20,3]
 x[21,3]
 x[22,3]
 x[23,3]
 x[24,3]
 x[25,3]
 x[26,3]
 x[27,3]
 x[28,3]
 x[29,3]
 x[0,4]
 x[1,4]
 x[2,4]
 x[3,4]
 x[4,4]
 x[5,4]
 x[6,4]
 x[7,4]
 x[8,4]
 x[9,4]
 x[10,4]
 x[11,4]
 x[12,4]
 x[13,4]
 x[14,4]
 x[15,4]
 x[16,4]
 x[17,4]
 x[18,4]
 x[19,4]
 x[20,4]
 x[21,4]
 x[22,4]
 x[23,4]
 x[24,4]
 x[25,4]
 x[26,4]
 x[27,4]
 x[28,4]
 x[29,4]
 x[0,5]
 x[1,5]
 x[2,5]
 x[3,5]
 x[4,5]
 x[5,5]
 x[6,5]
 x[7,5]
 x[8,5]
 x[9,5]
 x[10,5]
 x[11,5]
 x[12,5]
 x[13,5]
 x[14,5]
 x[15,5]
 x[16,5]
 x[17,5]
 x[18,5]
 x[19,5]
 x[20,5]
 x[21,5]
 x[22,5]
 x[23,5]
 x[24,5]
 x[25,5]
 x[26,5]
 x[27,5]
 x[28,5]
 x[29,5]
 x[0,6]
 x[1,6]
 x[2,6]
 x[3,6]
 x[4,6]
 x[5,6]
 x[6,6]
 x[7,6]
 x[8,6]
 x[9,6]
 x[10,6]
 x[11,6]
 x[12,6]
 x[13,6]
 x[14,6]
 x[15,6]
 x[16,6]
 x[17,6]
 x[18,6]
 x[19,6]
 x[20,6]
 x[21,6]
 x[22,6]
 x[23,6]
 x[24,6]
 x[25,6]
 x[26,6]
 x[27,6]
 x[28,6]
 x[29,6]
 x[0,7]
 x[1,7]
 x[2,7]
 x[3,7]
 x[4,7]
 x[5,7]
 x[6,7]
 x[7,7]
 x[8,7]
 x[9,7]
 x[10,7]
 x[11,7]
 x[12,7]
 x[13,7]
 x[14,7]
 x[15,7]
 x[16,7]
 x[17,7]
 x[18,7]
 x[19,7]
 x[20,7]
 x[21,7]
 x[22,7]
 x[23,7]
 x[24,7]
 x[25,7]
 x[26,7]
 x[27,7]
 x[28,7]
 x[29,7]
 x[0,8]
 x[1,8]
 x[2,8]
 x[3,8]
 x[4,8]
 x[5,8]
 x[6,8]
 x[7,8]
 x[8,8]
 x[9,8]
 x[10,8]
 x[11,8]
 x[12,8]
 x[13,8]
 x[14,8]
 x[15,8]
 x[16,8]
 x[17,8]
 x[18,8]
 x[19,8]
 x[20,8]
 x[21,8]
 x[22,8]
 x[23,8]
 x[24,8]
 x[25,8]
 x[26,8]
 x[27,8]
 x[28,8]
 x[29,8]
 x[0,9]
 x[1,9]
 x[2,9]
 x[3,9]
 x[4,9]
 x[5,9]
 x[6,9]
 x[7,9]
 x[8,9]
 x[9,9]
 x[10,9]
 x[11,9]
 x[12,9]
 x[13,9]
 x[14,9]
 x[15,9]
 x[16,9]
 x[17,9]
 x[18,9]
 x[19,9]
 x[20,9]
 x[21,9]
 x[22,9]
 x[23,9]
 x[24,9]
 x[25,9]
 x[26,9]
 x[27,9]
 x[28,9]
 x[29,9]
 x[0,10]
 x[1,10]
 x[2,10]
 x[3,10]
 x[4,10]
 x[5,10]
 x[6,10]
 x[7,10]
 x[8,10]
 x[9,10]
 x[10,10]
 x[11,10]
 x[12,10]
 x[13,10]
 x[14,10]
 x[15,10]
 x[16,10]
 x[17,10]
 x[18,10]
 x[19,10]
 x[20,10]
 x[21,10]
 x[22,10]
 x[23,10]
 x[24,10]
 x[25,10]
 x[26,10]
 x[27,10]
 x[28,10]
 x[29,10]
 x[0,11]
 x[1,11]
 x[2,11]
 x[3,11]
 x[4,11]
 x[5,11]
 x[6,11]
 x[7,11]
 x[8,11]
 x[9,11]
 x[10,11]
 x[11,11]
 x[12,11]
 x[13,11]
 x[14,11]
 x[15,11]
 x[16,11]
 x[17,11]
 x[18,11]
 x[19,11]
 x[20,11]
 x[21,11]
 x[22,11]
 x[23,11]
 x[24,11]
 x[25,11]
 x[26,11]
 x[27,11]
 x[28,11]
 x[29,11]
 x[0,12]
 x[1,12]
 x[2,12]
 x[3,12]
 x[4,12]
 x[5,12]
 x[6,12]
 x[7,12]
 x[8,12]
 x[9,12]
 x[10,12]
 x[11,12]
 x[12,12]
 x[13,12]
 x[14,12]
 x[15,12]
 x[16,12]
 x[17,12]
 x[18,12]
 x[19,12]
 x[20,12]
 x[21,12]
 x[22,12]
 x[23,12]
 x[24,12]
 x[25,12]
 x[26,12]
 x[27,12]
 x[28,12]
 x[29,12]
 x[0,13]
 x[1,13]
 x[2,13]
 x[3,13]
 x[4,13]
 x[5,13]
 x[6,13]
 x[7,13]
 x[8,13]
 x[9,13]
 x[10,13]
 x[11,13]
 x[12,13]
 x[13,13]
 x[14,13]
 x[15,13]
 x[16,13]
 x[17,13]
 x[18,13]
 x[19,13]
 x[20,13]
 x[21,13]
 x[22,13]
 x[23,13]
 x[24,13]
 x[25,13]
 x[26,13]
 x[27,13]
 x[28,13]
 x[29,13]
 x[0,14]
 x[1,14]
 x[2,14]
 x[3,14]
 x[4,14]
 x[5,14]
 x[6,14]
 x[7,14]
 x[8,14]
 x[9,14]
 x[10,14]
 x[11,14]
 x[12,14]
 x[13,14]
 x[14,14]
 x[15,14]
 x[16,14]
 x[17,14]
 x[18,14]
 x[19,14]
 x[20,14]
 x[21,14]
 x[22,14]
 x[23,14]
 x[24,14]
 x[25,14]
 x[26,14]
 x[27,14]
 x[28,14]
 x[29,14]
 y[0]
 y[1]
 y[2]
 y[3]
 y[4]
 y[5]
 y[6]
 y[7]
 y[8]
 y[9]
 y[10]
 y[11]
 y[12]
 y[13]
 y[14]
End
